rect_size = array1d(1..1,
    [|5,7|7,5|5,14|14,5|8,14|14,8|8,4|4,8|13,21|21,13|11,7|7,11|11,14|14,11|5,14|14,5|5,4|4,5|3,18|18,3|3,21|21,3|11,17|17,11|11,4|4,11|4,7|7,4|4,5|5,4|7,6|6,7|5,18|18,5|5,3|3,5|3,7|7,3|3,5|5,3|4,18|18,4|4,3|3,4|2,12|12,2|2,6|6,2|5,18|18,5|5,21|21,5|3,17|17,3|3,4|4,3|]);

rect_offset = array1d(1..1, [|0,0 |0,0 |0,0 |0,0 |0,0 |0,0 |0,0 |0,0 |0,0 |0,0 |0,0
    |0,0 |0,0 |0,0 |0,0 |0,0 |0,0 |0,0 |0,0 |0,0 |0,0 |0,0 |0,0 |0,0
    |0,0 |0,0 |0,0 |0,0 ||0,0 |0,0 |0,0 |0,0 |0,0 |0,0 |0,0 |0,0 |0,0
    |0,0 |0,0 |0,0 |0,0 |0,0 |0,0 |0,0 |0,0 |0,0 |0,0 |0,0 |0,0 |0,0
    |0,0 |0,0 |0,0 |0,0 |0,0 |0,0 |]);

shape = array1d(1..56, [{1}, {2}, {3}, {4}, {5}, {6}, {7}, {8}, {9}, {10},
    {11}, {12}, {13}, {14}, {15}, {16}, {17}, {18}, {19}, {20}, {21},
    {22}, {23}, {24}, {25}, {26}, {27}, {28}, {29}, {30}, {31}, {32},
    {33}, {34}, {35}, {36}, {37}, {38}, {39}, {40}, {41}, {42}, {43},
    {44}, {45}, {46}, {47}, {48}, {49}, {50}, {51}, {52}, {53}, {54},
    {55}, {56}]);

valid_shapes = array1d(1..28, [{1,2}, {3,4}, {5,6}, {7,8}, {9,10}, {11,12}, {13,14},
    {15,16}, {17,18}, {19,20}, {21,22}, {23,24}, {25,26}, {27,28},
    {29,30}, {31,32}, {33,34}, {35,36}, {37,38}, {39,40}, {41,42},
    {43,44}, {45,46}, {47,48}, {49,50}, {51,52}, {53,54}, {55,56}]);

w = 30;

n = 28;

